NAME : random_9
COMMENT : 50 random nodes
TYPE : TSP
DIMENSION : 50
EDGE_WEIGHT_TYPE : EUC_2D
NODE_COORD_SECTION
1 592 976
2 609 566
3 252 645
4 686 941
5 83 638
6 464 559
7 178 669
8 693 162
9 151 52
10 582 78
11 748 908
12 80 166
13 673 972
14 871 166
15 735 679
16 303 258
17 784 299
18 134 289
19 602 352
20 96 950
21 350 409
22 986 709
23 413 676
24 597 758
25 828 272
26 683 943
27 635 652
28 586 465
29 105 543
30 24 77
31 441 596
32 373 618
33 22 400
34 158 458
35 416 70
36 552 797
37 378 246
38 793 524
39 632 630
40 4 469
41 605 908
42 181 562
43 157 560
44 337 806
45 565 644
46 130 54
47 290 456
48 901 492
49 62 507
50 23 707
EOF